60
1 0 1
2 0 2
3 0 2
3 2 3
4 3 3
5 0 1
5 1 3
6 1 2
6 2 3
6 3 1
6 5 1
7 2 1
7 3 2
8 0 4
8 1 2
8 2 4
8 3 4
8 4 1
8 7 3
9 4 4
9 6 3
10 2 4
10 6 1
10 8 4
10 9 1
11 0 2
11 1 3
11 3 3
11 8 2
11 9 3
11 10 3
12 0 2
12 1 3
12 4 2
12 6 2
12 7 2
12 9 1
12 10 1
12 11 3
13 0 4
13 2 3
13 4 4
13 5 4
13 9 2
13 12 1
14 0 4
14 4 1
14 5 1
14 6 3
14 7 3
14 10 4
14 11 3
14 12 4
15 0 2
15 1 3
15 5 4
15 7 4
15 8 4
15 9 4
15 11 1
15 14 2
16 0 4
16 1 2
16 3 1
16 4 4
16 5 3
16 6 3
16 9 3
16 14 4
16 15 1
17 2 4
17 6 4
17 7 4
17 11 2
17 13 4
17 14 3
17 15 4
17 16 3
18 1 1
18 2 2
18 3 4
18 5 2
18 7 4
18 11 3
18 12 2
18 14 4
18 17 1
19 0 3
19 2 4
19 3 3
19 7 1
19 8 4
19 9 1
19 11 4
19 12 3
19 15 3
19 18 2
20 1 1
20 3 3
20 8 3
20 10 3
20 11 2
20 12 3
20 13 4
20 16 1
20 19 3
21 1 2
21 7 4
21 10 3
21 12 3
21 13 4
21 14 2
21 15 3
21 20 1
22 2 4
22 3 3
22 5 2
22 7 1
22 12 4
22 13 2
22 14 2
22 16 4
22 20 2
23 0 2
23 1 1
23 3 2
23 4 1
23 5 4
23 6 2
23 7 2
23 9 3
23 11 2
23 12 4
23 18 3
23 19 4
23 20 2
23 22 1
24 0 3
24 5 2
24 8 3
24 10 4
24 11 4
24 13 2
24 14 2
24 15 3
24 17 4
24 18 1
24 23 1
25 7 3
25 9 2
25 12 4
25 13 1
25 16 4
25 17 4
25 20 4
25 22 4
25 24 2
26 0 3
26 1 3
26 2 4
26 5 4
26 8 2
26 13 2
26 14 2
26 15 2
26 16 4
26 20 3
26 21 2
26 22 4
26 25 3
27 0 1
27 1 2
27 3 2
27 4 2
27 6 3
27 8 3
27 9 1
27 12 4
27 13 3
27 16 3
27 17 1
27 18 1
27 20 2
27 23 2
27 24 2
27 26 3
28 1 4
28 4 3
28 6 2
28 10 4
28 11 1
28 13 1
28 16 4
28 17 3
28 18 2
28 19 1
28 20 3
28 21 3
28 23 1
28 25 2
29 1 3
29 2 1
29 5 3
29 7 3
29 8 2
29 10 1
29 12 3
29 13 2
29 15 2
29 17 4
29 19 4
29 25 3
29 28 2
30 2 4
30 4 3
30 5 3
30 7 4
30 10 3
30 11 3
30 16 3
30 17 2
30 24 2
30 25 4
30 28 3
31 1 1
31 3 3
31 4 3
31 6 1
31 11 1
31 12 4
31 13 4
31 14 1
31 16 2
31 18 2
31 19 2
31 22 3
31 24 4
31 26 3
31 27 4
31 28 2
31 29 4
31 30 1
32 1 3
32 3 4
32 6 4
32 7 1
32 8 2
32 9 1
32 12 3
32 13 1
32 14 1
32 15 1
32 16 1
32 17 4
32 18 3
32 19 4
32 21 3
32 23 1
32 26 3
32 28 4
32 29 1
32 31 3
33 0 3
33 1 4
33 3 2
33 4 1
33 5 4
33 8 4
33 9 3
33 10 1
33 12 2
33 13 3
33 16 4
33 17 3
33 28 4
33 31 1
34 2 1
34 3 4
34 5 4
34 6 3
34 7 4
34 8 4
34 11 2
34 14 3
34 15 3
34 16 4
34 17 3
34 22 2
34 23 2
34 25 4
34 31 2
34 33 3
35 2 1
35 3 1
35 4 1
35 5 4
35 6 3
35 7 3
35 8 3
35 10 2
35 13 2
35 14 4
35 16 4
35 17 2
35 20 2
35 22 3
35 23 3
35 25 3
35 26 1
35 27 3
35 28 2
35 31 2
35 32 3
35 34 3
36 0 2
36 3 4
36 5 2
36 6 3
36 7 4
36 13 2
36 14 4
36 16 4
36 22 3
36 23 4
36 24 4
36 26 2
36 28 1
36 29 2
36 30 4
36 32 3
36 33 3
36 34 1
37 0 1
37 4 3
37 10 2
37 11 3
37 14 3
37 15 1
37 20 4
37 21 3
37 24 1
37 27 1
37 29 3
37 32 4
37 33 4
37 34 2
37 36 2
38 0 4
38 3 1
38 4 3
38 6 4
38 8 2
38 15 4
38 16 3
38 17 3
38 18 1
38 19 4
38 20 1
38 25 1
38 27 1
38 31 4
38 32 2
38 33 4
38 35 4
38 36 2
39 0 3
39 3 4
39 4 1
39 7 1
39 8 4
39 9 1
39 11 2
39 14 2
39 16 1
39 19 3
39 23 3
39 27 4
39 29 1
39 30 4
39 32 2
39 33 2
39 34 4
39 38 1
40 0 4
40 3 1
40 6 1
40 7 1
40 8 3
40 9 3
40 10 1
40 13 1
40 14 1
40 16 4
40 17 4
40 22 3
40 23 2
40 25 4
40 28 1
40 31 3
40 33 2
40 34 2
40 37 1
40 39 1
41 2 3
41 3 2
41 7 2
41 8 4
41 11 4
41 12 1
41 14 4
41 15 4
41 19 1
41 21 1
41 28 1
41 30 2
41 32 3
41 33 1
41 35 3
41 37 1
41 38 4
41 39 4
42 1 2
42 2 2
42 3 2
42 4 4
42 5 1
42 6 3
42 7 1
42 8 3
42 9 1
42 10 3
42 11 2
42 14 3
42 15 2
42 18 4
42 22 2
42 24 2
42 28 2
42 30 1
42 31 1
42 33 1
42 37 1
42 40 2
42 41 1
43 0 3
43 4 3
43 7 1
43 8 4
43 10 4
43 11 3
43 12 4
43 13 3
43 14 2
43 16 3
43 17 2
43 18 3
43 19 4
43 20 4
43 22 3
43 24 1
43 25 3
43 26 3
43 28 3
43 30 3
43 33 1
43 35 3
43 36 3
43 38 2
43 40 4
44 1 1
44 2 3
44 3 2
44 5 2
44 9 4
44 10 1
44 11 1
44 12 3
44 13 1
44 16 2
44 18 3
44 19 3
44 20 4
44 21 2
44 22 3
44 24 2
44 25 2
44 27 1
44 28 4
44 29 2
44 31 1
44 38 2
44 40 2
44 43 3
45 0 2
45 1 3
45 2 1
45 3 4
45 4 2
45 5 4
45 6 4
45 8 4
45 9 2
45 17 1
45 18 3
45 19 4
45 20 2
45 22 4
45 24 4
45 26 4
45 27 2
45 33 4
45 34 3
45 35 2
45 36 2
45 37 3
45 38 4
45 39 3
45 40 2
45 41 4
45 43 4
45 44 4
46 0 3
46 3 2
46 4 3
46 6 3
46 7 4
46 8 3
46 12 1
46 13 2
46 14 4
46 16 4
46 18 2
46 19 4
46 24 1
46 25 3
46 28 4
46 29 4
46 30 1
46 32 4
46 35 2
46 36 1
46 37 2
46 38 1
46 40 4
46 43 2
46 44 3
46 45 2
47 2 2
47 7 3
47 8 1
47 10 4
47 11 4
47 14 3
47 17 2
47 18 3
47 19 4
47 20 3
47 22 2
47 23 1
47 24 4
47 25 2
47 26 4
47 27 1
47 28 4
47 29 3
47 31 4
47 32 4
47 33 1
47 35 2
47 41 2
47 42 2
47 43 2
47 44 3
47 46 3
48 1 2
48 6 2
48 10 4
48 12 1
48 14 4
48 16 3
48 17 4
48 19 3
48 22 4
48 24 4
48 27 1
48 28 2
48 29 1
48 32 1
48 33 4
48 38 1
48 44 3
48 47 2
49 0 2
49 1 4
49 2 4
49 3 2
49 4 2
49 9 1
49 12 3
49 15 3
49 17 2
49 20 3
49 23 1
49 24 2
49 27 4
49 28 1
49 29 2
49 30 3
49 31 1
49 32 3
49 35 4
49 37 4
49 38 2
49 43 3
49 45 2
49 46 3
49 48 2
50 3 4
50 9 3
50 13 2
50 14 3
50 17 1
50 18 2
50 19 3
50 20 3
50 24 3
50 26 1
50 28 4
50 29 4
50 30 4
50 31 1
50 32 2
50 35 3
50 41 3
50 42 1
50 43 4
50 44 4
50 45 1
50 48 1
50 49 4
51 0 2
51 1 1
51 2 1
51 6 1
51 8 3
51 9 2
51 11 2
51 14 4
51 17 2
51 18 3
51 19 3
51 21 4
51 23 2
51 24 4
51 25 3
51 33 2
51 34 3
51 36 1
51 37 4
51 41 3
51 45 3
51 49 4
51 50 2
52 0 1
52 2 4
52 4 4
52 5 4
52 9 2
52 10 2
52 11 2
52 14 1
52 15 2
52 19 3
52 20 3
52 21 3
52 22 2
52 26 3
52 27 3
52 29 1
52 34 3
52 35 2
52 36 2
52 40 4
52 41 2
52 42 3
52 43 3
52 44 4
52 45 4
52 48 4
52 49 1
52 51 2
53 0 4
53 3 3
53 4 1
53 5 4
53 6 1
53 7 3
53 9 1
53 12 4
53 13 1
53 15 2
53 17 2
53 18 3
53 20 1
53 21 1
53 24 2
53 26 4
53 27 3
53 28 1
53 29 2
53 30 2
53 33 2
53 35 4
53 36 4
53 38 3
53 40 3
53 41 3
53 49 1
53 51 1
53 52 2
54 1 2
54 4 2
54 7 4
54 9 2
54 12 3
54 13 3
54 18 4
54 20 4
54 24 3
54 25 2
54 26 2
54 29 4
54 32 2
54 35 2
54 37 3
54 38 4
54 41 1
54 52 1
55 0 1
55 2 2
55 3 4
55 6 4
55 10 2
55 12 4
55 14 2
55 15 1
55 18 4
55 20 1
55 23 4
55 24 3
55 27 1
55 29 4
55 31 3
55 33 4
55 34 3
55 36 1
55 37 2
55 39 2
55 40 4
55 41 4
55 45 1
55 46 3
55 47 4
55 48 2
55 50 4
55 53 4
56 1 3
56 2 2
56 6 1
56 7 1
56 8 3
56 9 4
56 11 1
56 15 2
56 18 1
56 20 1
56 21 4
56 27 3
56 28 2
56 29 1
56 30 2
56 32 1
56 33 3
56 34 4
56 35 3
56 36 4
56 37 3
56 38 2
56 39 1
56 40 4
56 44 4
56 49 2
56 50 2
56 51 4
56 54 1
56 55 4
57 2 3
57 4 3
57 5 4
57 6 3
57 7 4
57 8 3
57 9 4
57 11 1
57 12 3
57 20 1
57 21 4
57 24 2
57 25 3
57 28 1
57 29 1
57 30 4
57 32 3
57 34 4
57 36 2
57 39 1
57 46 2
57 47 3
57 48 1
57 51 4
57 52 3
57 53 4
57 54 1
57 55 2
58 0 3
58 3 4
58 4 4
58 5 4
58 9 1
58 10 4
58 12 2
58 13 1
58 14 2
58 16 2
58 18 2
58 19 2
58 21 3
58 22 3
58 24 3
58 25 4
58 26 4
58 30 3
58 32 1
58 33 3
58 34 4
58 35 4
58 36 4
58 37 3
58 39 2
58 40 3
58 41 1
58 42 1
58 43 1
58 45 2
58 46 2
58 47 2
58 48 1
58 49 3
58 50 4
58 51 4
58 55 1
58 56 1
58 57 2
59 0 3
59 1 4
59 2 2
59 3 2
59 4 2
59 8 2
59 10 4
59 12 3
59 23 2
59 24 3
59 26 1
59 27 4
59 29 2
59 32 4
59 35 2
59 36 3
59 38 2
59 42 2
59 44 2
59 47 3
59 49 3
59 51 1
59 52 3
59 54 2
59 55 3
59 56 1
59 57 3
